row=5;
column=5;
left=[0, 0, 0, 11, 0];
right=[8, 15, 0, 0, 0];
top=[9, 11, 9, 0, 0];
bottom=[8, 0, 11, 13, 9];
Board=[|0,0,0,0,0|0,0,0,0,0|0,0,0,0,0|0,0,0,0,0|0,0,0,0,0|]